55 
300 
-0.5 0 0 0
0.5 0 0 -132
-7 -7 -35 -91
-7 -5 35 -11
-7 -3 35 -15
-7 -1 35 -24
-7 1 -35 -137
-7 3 35 -21
-7 5 35 -19
-7 7 -35 -111
-5 -7 35 -22
-5 -5 -25 -77
-5 -3 -25 -112
-5 -1 -25 -113
-5 1 -25 -137
-5 3 25 -10
-5 5 -25 -137
-5 7 35 -17
-3 -7 -35 -74
-3 -5 25 -20
-3 -3 -15 -70
-3 -1 15 -16
-3 1 -15 -124
-3 3 -15 -89
-3 5 -25 -92
-3 7 35 -23
-1 -7 35 -12
-1 -5 -25 -96
-1 -3 15 -24
-1 -1 -5 -70
-1 1 5 -24
-1 3 15 -13
-1 5 -25 -83
-1 7 -35 -87
1 -7 -35 -88
1 -5 -25 -71
1 -3 -15 -124
1 -1 5 -28
1 1 -5 -135
1 3 15 -27
1 5 25 -29
1 7 -35 -128
3 -7 35 -21
3 -5 -25 -139
3 -3 15 -28
3 -1 15 -20
3 1 15 -14
3 3 15 -19
3 5 -25 -118
3 7 35 -22
5 -7 -35 -67
5 -5 25 -29
5 -3 -25 -72
5 -1 25 -16
5 1 -25 -61
5 3 25 -21
5 5 -25 -87
5 7 35 -23
7 -7 -35 -65
7 -5 35 -12
7 -3 35 -21
7 -1 35 -13
7 1 -35 -94
7 3 -35 -135
7 5 35 -18
7 7 35 -21
